proyfinal/src/viki/013/experimentInOfficeAgust.take6.output/d9e5766d-1dec-4ea2-ab28-1cac6e6176bc.als.out
Reading from standard input... Use '--help' for help.
============================[ Problem Statistics ]=============================
|                                                                             |
|  Number of variables:         87638                                         |
|  Number of clauses:          161767                                         |
|  Parse time:                   0.04 s                                       |
|                                                                             |
============================[ Search Statistics ]==============================
| Conflicts |          ORIGINAL         |          LEARNT          | Progress |
|           |    Vars  Clauses Literals |    Limit  Clauses Lit/Cl |          |
===============================================================================
|       100 |   63112   107888   269524 |    39558      100     11 | 27.986 % |
|       250 |   63112   107888   269524 |    43514      250     12 | 27.986 % |
|       475 |   63112   107888   269524 |    47866      475     78 | 27.986 % |
|       812 |   63112   107888   269524 |    52652      812     71 | 27.986 % |
|      1318 |   63111   107844   269434 |    57918     1314     57 | 27.987 % |
|      2077 |   63111   107844   269434 |    63710     2073     67 | 27.987 % |
|      3216 |   63111   107844   269434 |    70081     3212     73 | 27.987 % |
|      4924 |   63092   107768   269255 |    77089     4406     79 | 28.008 % |
|      7486 |   63092   107768   269255 |    84798     6968     92 | 28.009 % |
|     11330 |   63092   107768   269255 |    93277    10812     96 | 28.008 % |
===============================================================================
restarts              : 62
conflicts             : 15277          (6196 /sec)
decisions             : 53076          (0.00 % random) (21526 /sec)
propagations          : 24069746       (9761748 /sec)
conflict literals     : 1477015        (48.64 % deleted)
Memory used           : 38.78 MB
CPU time              : 2.46572 s

INDETERMINATE
